RandInst10
10000
50
681 2
599 2
1088 6
1360 5
1114 4
2415 1
594 5
1028 2
515 7
1619 4
2078 4
1451 8
1913 9
842 1
1602 1
1699 1
2359 7
2312 3
637 9
1802 9
1913 3
2226 8
2296 7
623 6
1013 6
504 5
1272 1
2351 3
2445 3
1672 9
2099 10
2387 8
1282 3
1518 8
1541 2
2171 7
1592 7
1132 1
821 6
756 1
2055 6
1424 5
829 9
2125 7
1025 1
934 7
1223 7
1194 7
1189 6
2482 6
